unsat
(:binary-propagations  32
 :conflicts            1
 :final-checks         1
 :max-generation       1
 :max-memory           23.16
 :memory               20.80
 :mk-bool-var          321
 :mk-clause            119
 :mk-clause-binary     568
 :num-allocs           5858951
 :num-checks           1
 :propagations         32
 :quant-instantiations 94
 :restarts             1
 :rlimit-count         62545
 :time                 0.02)
